p cnf 7230 17
-3074 -3632 4151 0
3074 -4151 0
-3578 -3608 -4156 0
-3574 -3604 -4154 0
-3080 -3652 -4152 0
3578 -4157 0
3574 -4155 0
3080 -4153 0
4156 4157 0
4154 4155 0
4152 4153 0
3608 -4157 0
3604 -4155 0
3652 -4153 0
3610 -4159 0
4150 4151 0
-4150 -4151 0
